27258.0 
27235.0 
27245.0 
27261.0 
27271.0 
27224.0 
27375.0 
27334.0 
27263.0 
27161.0 
27450.0 
27281.0 
27279.0 
27297.0 
27249.0 
27358.0 
27384.0 
27236.0 
27274.0 
27341.0 
27237.0 
27369.0 
27384.0 
27242.0 
27200.0 
27315.0 
27301.0 
27259.0 
27249.0 
27367.0 
27342.0 
